NAME          COPTPROB
OBJSENSE
  MIN
ROWS
 N  __OBJ___
 L  C1      
 L  C5      
 L  C9      
 L  C13     
 L  C14     
 L  C17     
 L  C19     
 L  C22     
 L  C27     
 L  C30     
 L  C31     
 L  C39     
 L  C41     
 L  C44     
 L  C45     
 L  C47     
 L  C49     
 L  C52     
 L  C54     
 L  C60     
 L  C61     
 L  C63     
 L  C64     
 L  C65     
 L  C66     
 L  C67     
 L  C69     
 L  C70     
 L  C72     
 L  C73     
 L  C75     
 L  C77     
 L  C78     
 L  C80     
 L  C82     
 L  C83     
 L  C88     
 L  C90     
 L  C91     
 L  C92     
 L  C94     
 L  C97     
 L  C101    
 L  C109    
 L  C110    
 L  C111    
 L  C112    
 L  C113    
 L  C114    
 L  C115    
 L  C117    
 L  C120    
 L  C121    
 L  C122    
 L  C123    
 L  C125    
 L  C127    
 L  C132    
 L  C133    
 L  C138    
 L  C140    
 L  C145    
 L  C146    
 L  C148    
 L  C149    
 L  C154    
 L  C155    
 L  C156    
 L  C158    
 L  C160    
 L  C164    
 L  C170    
 L  C171    
 L  C173    
 L  C176    
 L  C177    
 L  C178    
 L  C179    
 L  C180    
 L  C185    
 L  C186    
 L  C187    
 L  C193    
 L  C194    
 L  C196    
 L  C197    
 L  C199    
 L  C205    
 L  C209    
 L  C212    
 L  C215    
 L  C218    
 L  C220    
 L  C221    
 L  C223    
 L  C227    
 L  C228    
 L  C231    
 L  C232    
 L  C233    
 L  C235    
 L  C236    
 L  C247    
 L  C248    
 L  C251    
 L  C254    
 L  C255    
 L  C258    
 L  C266    
 L  C267    
 L  C268    
 L  C269    
 L  C271    
 L  C272    
 L  C273    
 L  C274    
 L  C277    
 L  C278    
 L  C279    
 L  C282    
 L  C286    
 L  C288    
 L  C289    
 L  C290    
 L  C295    
 L  C296    
 L  C300    
 L  C303    
 L  C305    
 L  C307    
 L  C309    
 L  C316    
 L  C317    
 L  C318    
 L  C319    
 L  C320    
 L  C324    
 L  C325    
 L  C326    
 L  C328    
 L  C329    
 L  C330    
 L  C332    
 L  C333    
 L  C334    
 L  C336    
 L  C337    
 L  C338    
 L  C339    
 L  C342    
 L  C348    
 L  C351    
 L  C353    
 L  C355    
 L  C356    
 L  C358    
 L  C360    
 L  C369    
 L  C371    
 L  C373    
 L  C374    
 L  C375    
 L  C376    
 L  C379    
 L  C380    
 L  C383    
 L  C385    
 L  C386    
 L  C387    
 L  C390    
 L  C391    
 L  C394    
 L  C398    
 L  C399    
COLUMNS
    MARKER    'MARKER'                 'INTORG'
    x1        __OBJ___  869
    x1        C14       -1
    x1        C27       -1
    x1        C49       -1
    x1        C121      -1
    x1        C326      -1
    x4        __OBJ___  280
    x4        C176      -1
    x4        C277      -1
    x4        C334      -1
    x8        __OBJ___  245
    x8        C22       -1
    x8        C82       -1
    x8        C111      -1
    x9        __OBJ___  199
    x9        C13       -1
    x9        C109      -1
    x9        C178      -1
    x13       __OBJ___  361
    x13       C251      -1
    x13       C320      -1
    x13       C371      -1
    x14       __OBJ___  163
    x14       C117      -1
    x14       C156      -1
    x14       C266      -1
    x15       __OBJ___  598
    x15       C247      -1
    x15       C328      -1
    x17       __OBJ___  729
    x17       C78       -1
    x17       C94       -1
    x17       C186      -1
    x20       __OBJ___  245
    x20       C91       -1
    x20       C92       -1
    x20       C133      -1
    x23       __OBJ___  825
    x23       C5        -1
    x23       C173      -1
    x24       __OBJ___  628
    x24       C115      -1
    x24       C324      -1
    x25       __OBJ___  591
    x25       C52       -1
    x25       C60       -1
    x25       C158      -1
    x25       C170      -1
    x25       C232      -1
    x27       __OBJ___  38
    x27       C351      -1
    x29       __OBJ___  773
    x29       C140      -1
    x29       C218      -1
    x29       C356      -1
    x29       C360      -1
    x35       __OBJ___  771
    x35       C101      -1
    x35       C268      -1
    x35       C269      -1
    x35       C303      -1
    x35       C380      -1
    x38       __OBJ___  373
    x38       C64       -1
    x38       C223      -1
    x38       C231      -1
    x38       C254      -1
    x38       C369      -1
    x41       __OBJ___  71
    x41       C17       -1
    x41       C88       -1
    x41       C196      -1
    x41       C220      -1
    x43       __OBJ___  552
    x43       C248      -1
    x43       C355      -1
    x43       C398      -1
    x45       __OBJ___  843
    x45       C185      -1
    x45       C336      -1
    x49       __OBJ___  980
    x49       C61       -1
    x49       C66       -1
    x49       C300      -1
    x52       __OBJ___  332
    x52       C193      -1
    x52       C215      -1
    x52       C278      -1
    x52       C295      -1
    x52       C348      -1
    x52       C386      -1
    x53       __OBJ___  299
    x53       C75       -1
    x53       C199      -1
    x55       __OBJ___  656
    x55       C70       -1
    x55       C271      -1
    x55       C394      -1
    x56       __OBJ___  139
    x56       C132      -1
    x56       C317      -1
    x58       __OBJ___  870
    x58       C39       -1
    x58       C67       -1
    x58       C274      -1
    x58       C387      -1
    x59       __OBJ___  83
    x59       C19       -1
    x60       __OBJ___  390
    x60       C149      -1
    x60       C180      -1
    x61       __OBJ___  833
    x61       C9        -1
    x61       C113      -1
    x61       C127      -1
    x61       C330      -1
    x61       C332      -1
    x61       C390      -1
    x64       __OBJ___  208
    x64       C179      -1
    x64       C255      -1
    x64       C288      -1
    x64       C329      -1
    x65       __OBJ___  683
    x65       C63       -1
    x65       C233      -1
    x65       C267      -1
    x65       C305      -1
    x69       __OBJ___  81
    x69       C45       -1
    x69       C114      -1
    x69       C187      -1
    x69       C383      -1
    x73       __OBJ___  145
    x73       C69       -1
    x73       C171      -1
    x73       C236      -1
    x73       C353      -1
    x76       __OBJ___  975
    x76       C1        -1
    x76       C80       -1
    x76       C296      -1
    x76       C374      -1
    x76       C375      -1
    x78       __OBJ___  726
    x78       C97       -1
    x78       C258      -1
    x78       C376      -1
    x83       __OBJ___  8
    x83       C73       -1
    x83       C120      -1
    x83       C148      -1
    x87       __OBJ___  856
    x87       C65       -1
    x87       C146      -1
    x87       C286      -1
    x87       C333      -1
    x88       __OBJ___  456
    x88       C205      -1
    x88       C316      -1
    x88       C391      -1
    x91       __OBJ___  955
    x91       C47       -1
    x91       C272      -1
    x91       C289      -1
    x91       C373      -1
    x92       __OBJ___  109
    x92       C110      -1
    x92       C197      -1
    x92       C228      -1
    x93       __OBJ___  202
    x93       C54       -1
    x93       C160      -1
    x93       C209      -1
    x100      __OBJ___  435
    x100      C305      -1
    x100      C387      -1
    x102      __OBJ___  218
    x102      C22       -1
    x102      C44       -1
    x107      __OBJ___  267
    x107      C282      -1
    x107      C371      -1
    x108      __OBJ___  555
    x108      C209      -1
    x108      C247      -1
    x108      C337      -1
    x109      __OBJ___  186
    x109      C39       -1
    x109      C390      -1
    x112      __OBJ___  57
    x112      C30       -1
    x113      __OBJ___  448
    x113      C70       -1
    x113      C336      -1
    x114      __OBJ___  197
    x114      C122      -1
    x114      C228      -1
    x114      C289      -1
    x114      C337      -1
    x117      __OBJ___  411
    x117      C77       -1
    x117      C248      -1
    x117      C255      -1
    x117      C348      -1
    x118      __OBJ___  211
    x118      C199      -1
    x118      C385      -1
    x122      __OBJ___  319
    x122      C149      -1
    x127      __OBJ___  487
    x127      C30       -1
    x127      C113      -1
    x129      __OBJ___  433
    x129      C117      -1
    x129      C288      -1
    x129      C329      -1
    x129      C358      -1
    x131      __OBJ___  656
    x131      C212      -1
    x131      C303      -1
    x131      C338      -1
    x132      __OBJ___  63
    x132      C220      -1
    x132      C295      -1
    x134      __OBJ___  166
    x134      C60       -1
    x134      C278      -1
    x134      C288      -1
    x134      C353      -1
    x135      __OBJ___  566
    x135      C80       -1
    x135      C111      -1
    x135      C158      -1
    x135      C376      -1
    x138      __OBJ___  790
    x138      C19       -1
    x138      C60       -1
    x138      C374      -1
    x138      C391      -1
    x139      __OBJ___  269
    x139      C63       -1
    x139      C91       -1
    x139      C215      -1
    x139      C258      -1
    x139      C324      -1
    x142      __OBJ___  783
    x142      C14       -1
    x142      C30       -1
    x142      C72       -1
    x142      C383      -1
    x145      __OBJ___  203
    x145      C274      -1
    x145      C398      -1
    x146      __OBJ___  94
    x146      C82       -1
    x146      C112      -1
    x146      C277      -1
    x148      __OBJ___  204
    x148      C272      -1
    x148      C358      -1
    x152      __OBJ___  414
    x152      C65       -1
    x152      C149      -1
    x154      __OBJ___  49
    x154      C101      -1
    x154      C138      -1
    x154      C248      -1
    x155      __OBJ___  684
    x155      C83       -1
    x155      C251      -1
    x155      C271      -1
    x155      C337      -1
    x155      C379      -1
    x156      __OBJ___  558
    x156      C75       -1
    x156      C233      -1
    x156      C375      -1
    x159      __OBJ___  193
    x159      C132      -1
    x159      C282      -1
    x159      C348      -1
    x160      __OBJ___  615
    x160      C13       -1
    x160      C158      -1
    x160      C199      -1
    x160      C295      -1
    x164      __OBJ___  115
    x164      C97       -1
    x165      __OBJ___  252
    x165      C258      -1
    x165      C267      -1
    x165      C296      -1
    x165      C325      -1
    x165      C371      -1
    x168      __OBJ___  471
    x168      C49       -1
    x168      C125      -1
    x168      C251      -1
    x170      __OBJ___  707
    x170      C78       -1
    x170      C286      -1
    x170      C318      -1
    x171      __OBJ___  337
    x171      C67       -1
    x171      C369      -1
    x171      C399      -1
    x181      __OBJ___  719
    x181      C19       -1
    x181      C122      -1
    x181      C154      -1
    x181      C180      -1
    x184      __OBJ___  789
    x184      C185      -1
    x184      C266      -1
    x185      __OBJ___  296
    x185      C235      -1
    x185      C336      -1
    x186      __OBJ___  511
    x186      C47       -1
    x186      C92       -1
    x187      __OBJ___  355
    x187      C177      -1
    x187      C196      -1
    x187      C355      -1
    x191      __OBJ___  84
    x191      C112      -1
    x191      C307      -1
    x192      __OBJ___  157
    x192      C41       -1
    x192      C155      -1
    x192      C215      -1
    x192      C273      -1
    x193      __OBJ___  253
    x193      C209      -1
    x193      C212      -1
    x194      __OBJ___  49
    x194      C318      -1
    x196      __OBJ___  318
    x196      C127      -1
    x198      __OBJ___  526
    x198      C47       -1
    x198      C90       -1
    x198      C160      -1
    x202      __OBJ___  324
    x202      C114      -1
    x202      C271      -1
    x204      __OBJ___  170
    x204      C133      -1
    x204      C375      -1
    x207      __OBJ___  176
    x207      C92       -1
    x208      __OBJ___  69
    x208      C45       -1
    x208      C49       -1
    x208      C269      -1
    x208      C339      -1
    x209      __OBJ___  103
    x209      C60       -1
    x214      __OBJ___  651
    x214      C268      -1
    x214      C319      -1
    x217      __OBJ___  51
    x217      C145      -1
    x217      C333      -1
    x217      C339      -1
    x217      C351      -1
    x219      __OBJ___  503
    x219      C61       -1
    x219      C178      -1
    x219      C303      -1
    x219      C379      -1
    x220      __OBJ___  944
    x220      C27       -1
    x220      C72       -1
    x220      C268      -1
    x220      C332      -1
    x223      __OBJ___  428
    x223      C254      -1
    x223      C300      -1
    x223      C332      -1
    x224      __OBJ___  168
    x224      C91       -1
    x224      C110      -1
    x224      C325      -1
    x226      __OBJ___  321
    x226      C127      -1
    x226      C154      -1
    x226      C272      -1
    x226      C342      -1
    x228      __OBJ___  609
    x228      C125      -1
    x228      C140      -1
    x228      C205      -1
    x228      C227      -1
    x232      __OBJ___  400
    x232      C9        -1
    x232      C80       -1
    x232      C123      -1
    x232      C279      -1
    x233      __OBJ___  320
    x233      C44       -1
    x233      C342      -1
    x235      __OBJ___  284
    x235      C121      -1
    x235      C254      -1
    x235      C255      -1
    x237      __OBJ___  45
    x237      C140      -1
    x237      C186      -1
    x238      __OBJ___  612
    x238      C374      -1
    x245      __OBJ___  496
    x245      C295      -1
    x245      C300      -1
    x245      C383      -1
    x247      __OBJ___  538
    x247      C115      -1
    x247      C373      -1
    x255      __OBJ___  307
    x255      C90       -1
    x255      C171      -1
    x255      C218      -1
    x255      C353      -1
    x256      __OBJ___  195
    x256      C9        -1
    x256      C27       -1
    x256      C385      -1
    x259      __OBJ___  910
    x259      C54       -1
    x259      C173      -1
    x259      C398      -1
    x262      __OBJ___  124
    x262      C171      -1
    x264      __OBJ___  76
    x264      C39       -1
    x264      C91       -1
    x264      C320      -1
    x265      __OBJ___  635
    x265      C17       -1
    x265      C247      -1
    x265      C274      -1
    x266      __OBJ___  248
    x266      C97       -1
    x266      C155      -1
    x266      C235      -1
    x267      __OBJ___  289
    x267      C1        -1
    x267      C94       -1
    x267      C199      -1
    x267      C371      -1
    x267      C398      -1
    x268      __OBJ___  533
    x268      C52       -1
    x268      C305      -1
    x273      __OBJ___  44
    x273      C194      -1
    x273      C221      -1
    x273      C251      -1
    x274      __OBJ___  58
    x274      C227      -1
    x274      C272      -1
    x279      __OBJ___  73
    x279      C133      -1
    x281      __OBJ___  256
    x281      C114      -1
    x281      C221      -1
    x281      C316      -1
    x285      __OBJ___  435
    x285      C65       -1
    x285      C120      -1
    x285      C333      -1
    x286      __OBJ___  2
    x286      C235      -1
    x286      C309      -1
    x287      __OBJ___  346
    x287      C41       -1
    x287      C83       -1
    x288      __OBJ___  227
    x288      C49       -1
    x288      C67       -1
    x292      __OBJ___  420
    x292      C123      -1
    x292      C336      -1
    x293      __OBJ___  137
    x293      C194      -1
    x293      C356      -1
    x293      C386      -1
    x293      C399      -1
    x298      __OBJ___  115
    x298      C138      -1
    x298      C148      -1
    x298      C178      -1
    x298      C394      -1
    x301      __OBJ___  97
    x301      C290      -1
    x301      C296      -1
    x302      __OBJ___  355
    x302      C193      -1
    x302      C223      -1
    x305      __OBJ___  269
    x305      C72       -1
    x305      C132      -1
    x305      C156      -1
    x305      C164      -1
    x306      __OBJ___  960
    x306      C205      -1
    x306      C271      -1
    x306      C374      -1
    x308      __OBJ___  805
    x308      C22       -1
    x308      C90       -1
    x308      C329      -1
    x308      C334      -1
    x309      __OBJ___  442
    x309      C221      -1
    x309      C267      -1
    x309      C303      -1
    x310      __OBJ___  506
    x310      C91       -1
    x310      C120      -1
    x310      C160      -1
    x310      C267      -1
    x310      C375      -1
    x315      __OBJ___  394
    x315      C114      -1
    x315      C215      -1
    x315      C336      -1
    x315      C353      -1
    x316      __OBJ___  149
    x316      C187      -1
    x316      C258      -1
    x324      __OBJ___  335
    x324      C97       -1
    x324      C154      -1
    x324      C328      -1
    x324      C337      -1
    x324      C339      -1
    x325      __OBJ___  359
    x325      C176      -1
    x325      C177      -1
    x328      __OBJ___  18
    x328      C31       -1
    x328      C279      -1
    x335      __OBJ___  10
    x335      C170      -1
    x335      C254      -1
    x335      C379      -1
    x341      __OBJ___  61
    x341      C5        -1
    x341      C251      -1
    x342      __OBJ___  196
    x342      C73       -1
    x342      C83       -1
    x342      C326      -1
    x343      __OBJ___  72
    x343      C54       -1
    x345      __OBJ___  48
    x345      C197      -1
    x345      C356      -1
    x347      __OBJ___  648
    x347      C146      -1
    x347      C177      -1
    x349      __OBJ___  156
    x349      C77       -1
    x349      C164      -1
    x349      C318      -1
    x350      __OBJ___  205
    x350      C290      -1
    x350      C386      -1
    x352      __OBJ___  215
    x352      C179      -1
    x352      C236      -1
    x352      C338      -1
    x353      __OBJ___  141
    x353      C30       -1
    x353      C66       -1
    x354      __OBJ___  936
    x354      C110      -1
    x354      C127      -1
    x354      C231      -1
    x354      C309      -1
    x354      C351      -1
    x354      C371      -1
    x358      __OBJ___  846
    x358      C52       -1
    x358      C78       -1
    x358      C145      -1
    x358      C342      -1
    x362      __OBJ___  401
    x362      C223      -1
    x362      C273      -1
    x363      __OBJ___  704
    x363      C338      -1
    x363      C360      -1
    x367      __OBJ___  686
    x367      C1        -1
    x367      C319      -1
    x367      C330      -1
    x371      __OBJ___  419
    x371      C123      -1
    x371      C125      -1
    x372      __OBJ___  47
    x372      C196      -1
    x373      __OBJ___  675
    x373      C64       -1
    x373      C178      -1
    x373      C218      -1
    x375      __OBJ___  62
    x375      C120      -1
    x375      C232      -1
    x375      C380      -1
    x378      __OBJ___  350
    x378      C193      -1
    x378      C251      -1
    x378      C307      -1
    x379      __OBJ___  64
    x379      C145      -1
    x379      C272      -1
    x384      __OBJ___  768
    x384      C39       -1
    x384      C148      -1
    x384      C300      -1
    x384      C338      -1
    x384      C339      -1
    x385      __OBJ___  150
    x385      C1        -1
    x385      C31       -1
    x385      C69       -1
    x386      __OBJ___  647
    x386      C88       -1
    x386      C223      -1
    x386      C227      -1
    x386      C279      -1
    x386      C326      -1
    x386      C330      -1
    x391      __OBJ___  351
    x391      C27       -1
    x391      C149      -1
    x391      C390      -1
    x393      __OBJ___  940
    x393      C180      -1
    x393      C233      -1
    x395      __OBJ___  191
    x395      C72       -1
    x395      C177      -1
    x396      __OBJ___  403
    x396      C271      -1
    x396      C317      -1
    x398      __OBJ___  168
    x398      C72       -1
    x398      C109      -1
    x400      __OBJ___  446
    x400      C120      -1
    x400      C391      -1
    MARKER    'MARKER'                 'INTEND'
RHS
    RHS       __OBJ___  -20024
    RHS       C1        -1
    RHS       C5        -1
    RHS       C9        -1
    RHS       C13       -1
    RHS       C14       -1
    RHS       C17       -1
    RHS       C19       -1
    RHS       C22       -1
    RHS       C27       -1
    RHS       C30       -1
    RHS       C31       -1
    RHS       C39       -1
    RHS       C41       -1
    RHS       C44       -1
    RHS       C45       -1
    RHS       C47       -1
    RHS       C49       -1
    RHS       C52       -1
    RHS       C54       -1
    RHS       C60       -1
    RHS       C61       -1
    RHS       C63       -1
    RHS       C64       -1
    RHS       C65       -1
    RHS       C66       -1
    RHS       C67       -1
    RHS       C69       -1
    RHS       C70       -1
    RHS       C72       -1
    RHS       C73       -1
    RHS       C75       -1
    RHS       C77       -1
    RHS       C78       -1
    RHS       C80       -1
    RHS       C82       -1
    RHS       C83       -1
    RHS       C88       -1
    RHS       C90       -1
    RHS       C91       -1
    RHS       C92       -1
    RHS       C94       -1
    RHS       C97       -1
    RHS       C101      -1
    RHS       C109      -1
    RHS       C110      -1
    RHS       C111      -1
    RHS       C112      -1
    RHS       C113      -1
    RHS       C114      -1
    RHS       C115      -1
    RHS       C117      -1
    RHS       C120      -1
    RHS       C121      -1
    RHS       C122      -1
    RHS       C123      -1
    RHS       C125      -1
    RHS       C127      -1
    RHS       C132      -1
    RHS       C133      -1
    RHS       C138      -1
    RHS       C140      -1
    RHS       C145      -1
    RHS       C146      -1
    RHS       C148      -1
    RHS       C149      -1
    RHS       C154      -1
    RHS       C155      -1
    RHS       C156      -1
    RHS       C158      -1
    RHS       C160      -1
    RHS       C164      -1
    RHS       C170      -1
    RHS       C171      -1
    RHS       C173      -1
    RHS       C176      -1
    RHS       C177      -1
    RHS       C178      -1
    RHS       C179      -1
    RHS       C180      -1
    RHS       C185      -1
    RHS       C186      -1
    RHS       C187      -1
    RHS       C193      -1
    RHS       C194      -1
    RHS       C196      -1
    RHS       C197      -1
    RHS       C199      -1
    RHS       C205      -1
    RHS       C209      -1
    RHS       C212      -1
    RHS       C215      -1
    RHS       C218      -1
    RHS       C220      -1
    RHS       C221      -1
    RHS       C223      -1
    RHS       C227      -1
    RHS       C228      -1
    RHS       C231      -1
    RHS       C232      -1
    RHS       C233      -1
    RHS       C235      -1
    RHS       C236      -1
    RHS       C247      -1
    RHS       C248      -1
    RHS       C251      -1
    RHS       C254      -1
    RHS       C255      -1
    RHS       C258      -1
    RHS       C266      -1
    RHS       C267      -1
    RHS       C268      -1
    RHS       C269      -1
    RHS       C271      -1
    RHS       C272      -1
    RHS       C273      -1
    RHS       C274      -1
    RHS       C277      -1
    RHS       C278      -1
    RHS       C279      -1
    RHS       C282      -1
    RHS       C286      -1
    RHS       C288      -1
    RHS       C289      -1
    RHS       C290      -1
    RHS       C295      -1
    RHS       C296      -1
    RHS       C300      -1
    RHS       C303      -1
    RHS       C305      -1
    RHS       C307      -1
    RHS       C309      -1
    RHS       C316      -1
    RHS       C317      -1
    RHS       C318      -1
    RHS       C319      -1
    RHS       C320      -1
    RHS       C324      -1
    RHS       C325      -1
    RHS       C326      -1
    RHS       C328      -1
    RHS       C329      -1
    RHS       C330      -1
    RHS       C332      -1
    RHS       C333      -1
    RHS       C334      -1
    RHS       C336      -1
    RHS       C337      -1
    RHS       C338      -1
    RHS       C339      -1
    RHS       C342      -1
    RHS       C348      -1
    RHS       C351      -1
    RHS       C353      -1
    RHS       C355      -1
    RHS       C356      -1
    RHS       C358      -1
    RHS       C360      -1
    RHS       C369      -1
    RHS       C371      -1
    RHS       C373      -1
    RHS       C374      -1
    RHS       C375      -1
    RHS       C376      -1
    RHS       C379      -1
    RHS       C380      -1
    RHS       C383      -1
    RHS       C385      -1
    RHS       C386      -1
    RHS       C387      -1
    RHS       C390      -1
    RHS       C391      -1
    RHS       C394      -1
    RHS       C398      -1
    RHS       C399      -1
BOUNDS
 UP BOUND     x1        1
 UP BOUND     x4        1
 UP BOUND     x8        1
 UP BOUND     x9        1
 UP BOUND     x13       1
 UP BOUND     x14       1
 UP BOUND     x15       1
 UP BOUND     x17       1
 UP BOUND     x20       1
 UP BOUND     x23       1
 UP BOUND     x24       1
 UP BOUND     x25       1
 UP BOUND     x27       1
 UP BOUND     x29       1
 UP BOUND     x35       1
 UP BOUND     x38       1
 UP BOUND     x41       1
 UP BOUND     x43       1
 UP BOUND     x45       1
 UP BOUND     x49       1
 UP BOUND     x52       1
 UP BOUND     x53       1
 UP BOUND     x55       1
 UP BOUND     x56       1
 UP BOUND     x58       1
 UP BOUND     x59       1
 UP BOUND     x60       1
 UP BOUND     x61       1
 UP BOUND     x64       1
 UP BOUND     x65       1
 UP BOUND     x69       1
 UP BOUND     x73       1
 UP BOUND     x76       1
 UP BOUND     x78       1
 UP BOUND     x83       1
 UP BOUND     x87       1
 UP BOUND     x88       1
 UP BOUND     x91       1
 UP BOUND     x92       1
 UP BOUND     x93       1
 UP BOUND     x100      1
 UP BOUND     x102      1
 UP BOUND     x107      1
 UP BOUND     x108      1
 UP BOUND     x109      1
 UP BOUND     x112      1
 UP BOUND     x113      1
 UP BOUND     x114      1
 UP BOUND     x117      1
 UP BOUND     x118      1
 UP BOUND     x122      1
 UP BOUND     x127      1
 UP BOUND     x129      1
 UP BOUND     x131      1
 UP BOUND     x132      1
 UP BOUND     x134      1
 UP BOUND     x135      1
 UP BOUND     x138      1
 UP BOUND     x139      1
 UP BOUND     x142      1
 UP BOUND     x145      1
 UP BOUND     x146      1
 UP BOUND     x148      1
 UP BOUND     x152      1
 UP BOUND     x154      1
 UP BOUND     x155      1
 UP BOUND     x156      1
 UP BOUND     x159      1
 UP BOUND     x160      1
 UP BOUND     x164      1
 UP BOUND     x165      1
 UP BOUND     x168      1
 UP BOUND     x170      1
 UP BOUND     x171      1
 UP BOUND     x181      1
 UP BOUND     x184      1
 UP BOUND     x185      1
 UP BOUND     x186      1
 UP BOUND     x187      1
 UP BOUND     x191      1
 UP BOUND     x192      1
 UP BOUND     x193      1
 UP BOUND     x194      1
 UP BOUND     x196      1
 UP BOUND     x198      1
 UP BOUND     x202      1
 UP BOUND     x204      1
 UP BOUND     x207      1
 UP BOUND     x208      1
 UP BOUND     x209      1
 UP BOUND     x214      1
 UP BOUND     x217      1
 UP BOUND     x219      1
 UP BOUND     x220      1
 UP BOUND     x223      1
 UP BOUND     x224      1
 UP BOUND     x226      1
 UP BOUND     x228      1
 UP BOUND     x232      1
 UP BOUND     x233      1
 UP BOUND     x235      1
 UP BOUND     x237      1
 UP BOUND     x238      1
 UP BOUND     x245      1
 UP BOUND     x247      1
 UP BOUND     x255      1
 UP BOUND     x256      1
 UP BOUND     x259      1
 UP BOUND     x262      1
 UP BOUND     x264      1
 UP BOUND     x265      1
 UP BOUND     x266      1
 UP BOUND     x267      1
 UP BOUND     x268      1
 UP BOUND     x273      1
 UP BOUND     x274      1
 UP BOUND     x279      1
 UP BOUND     x281      1
 UP BOUND     x285      1
 UP BOUND     x286      1
 UP BOUND     x287      1
 UP BOUND     x288      1
 UP BOUND     x292      1
 UP BOUND     x293      1
 UP BOUND     x298      1
 UP BOUND     x301      1
 UP BOUND     x302      1
 UP BOUND     x305      1
 UP BOUND     x306      1
 UP BOUND     x308      1
 UP BOUND     x309      1
 UP BOUND     x310      1
 UP BOUND     x315      1
 UP BOUND     x316      1
 UP BOUND     x324      1
 UP BOUND     x325      1
 UP BOUND     x328      1
 UP BOUND     x335      1
 UP BOUND     x341      1
 UP BOUND     x342      1
 UP BOUND     x343      1
 UP BOUND     x345      1
 UP BOUND     x347      1
 UP BOUND     x349      1
 UP BOUND     x350      1
 UP BOUND     x352      1
 UP BOUND     x353      1
 UP BOUND     x354      1
 UP BOUND     x358      1
 UP BOUND     x362      1
 UP BOUND     x363      1
 UP BOUND     x367      1
 UP BOUND     x371      1
 UP BOUND     x372      1
 UP BOUND     x373      1
 UP BOUND     x375      1
 UP BOUND     x378      1
 UP BOUND     x379      1
 UP BOUND     x384      1
 UP BOUND     x385      1
 UP BOUND     x386      1
 UP BOUND     x391      1
 UP BOUND     x393      1
 UP BOUND     x395      1
 UP BOUND     x396      1
 UP BOUND     x398      1
 UP BOUND     x400      1
ENDATA
